\Problem name: compact

Minimize
OBJROW: C
Subject To
ord(0,1):  - x(0,1) + x(0,2) >= 4
ord(0,2):  x(0,0) - x(0,2) >= 1
ord(1,1):  - x(1,1) + x(1,2) >= 1
ord(1,2):  x(1,0) - x(1,2) >= 7
ord(2,1):  - x(2,0) + x(2,2) >= 4
ord(2,2):  x(2,1) - x(2,2) >= 1
ord(3,1):  - x(3,0) + x(3,1) >= 3
ord(3,2):  - x(3,1) + x(3,2) >= 1
ord(4,1):  x(4,1) - x(4,2) >= 1
ord(4,2):  x(4,0) - x(4,1) >= 6
triangle2(0,1,0):  y(0,1,0) + y(1,0,0) = 1
triangle2(0,1,1):  y(0,1,1) + y(1,0,1) = 1
triangle2(0,1,2):  y(0,1,2) + y(1,0,2) = 1
triangle2(0,2,0):  y(0,2,0) + y(2,0,0) = 1
triangle2(0,2,1):  y(0,2,1) + y(2,0,1) = 1
triangle2(0,2,2):  y(0,2,2) + y(2,0,2) = 1
triangle2(0,3,0):  y(0,3,0) + y(3,0,0) = 1
triangle2(0,3,1):  y(0,3,1) + y(3,0,1) = 1
triangle2(0,3,2):  y(0,3,2) + y(3,0,2) = 1
triangle2(0,4,0):  y(0,4,0) + y(4,0,0) = 1
triangle2(0,4,1):  y(0,4,1) + y(4,0,1) = 1
triangle2(0,4,2):  y(0,4,2) + y(4,0,2) = 1
triangle2(1,2,0):  y(1,2,0) + y(2,1,0) = 1
triangle2(1,2,1):  y(1,2,1) + y(2,1,1) = 1
triangle2(1,2,2):  y(1,2,2) + y(2,1,2) = 1
triangle2(1,3,0):  y(1,3,0) + y(3,1,0) = 1
triangle2(1,3,1):  y(1,3,1) + y(3,1,1) = 1
triangle2(1,3,2):  y(1,3,2) + y(3,1,2) = 1
triangle2(1,4,0):  y(1,4,0) + y(4,1,0) = 1
triangle2(1,4,1):  y(1,4,1) + y(4,1,1) = 1
triangle2(1,4,2):  y(1,4,2) + y(4,1,2) = 1
triangle2(2,3,0):  y(2,3,0) + y(3,2,0) = 1
triangle2(2,3,1):  y(2,3,1) + y(3,2,1) = 1
triangle2(2,3,2):  y(2,3,2) + y(3,2,2) = 1
triangle2(2,4,0):  y(2,4,0) + y(4,2,0) = 1
triangle2(2,4,1):  y(2,4,1) + y(4,2,1) = 1
triangle2(2,4,2):  y(2,4,2) + y(4,2,2) = 1
triangle2(3,4,0):  y(3,4,0) + y(4,3,0) = 1
triangle2(3,4,1):  y(3,4,1) + y(4,3,1) = 1
triangle2(3,4,2):  y(3,4,2) + y(4,3,2) = 1
MCLinV(0,1,0):  x(0,0) - v(0,1,0) - x(1,0) = 2
MCLinV(1,0,0):  - x(0,0) - v(1,0,0) + x(1,0) = 4
MCLin1(0,1,0):  u(0,1,0) >= -0
MCLin2(0,1,0):  -45 y(1,0,0) - u(0,1,0) <= -0
MCLin3(0,1,0):  36 y(1,0,0) + v(0,1,0) - u(0,1,0) <= 36
MCLin4(0,1,0):  36 y(1,0,0) - u(0,1,0) >= -0
MCLin5(0,1,0):  -45 y(1,0,0) + v(0,1,0) - u(0,1,0) >= -45
MCLin6(1,0,0):  u(1,0,0) >= -0
MCLin7(1,0,0):  -42 y(0,1,0) - u(1,0,0) <= -0
MCLin8(1,0,0):  39 y(0,1,0) + v(1,0,0) - u(1,0,0) <= 39
MCLin9(1,0,0):  39 y(0,1,0) - u(1,0,0) >= -0
MCLin10(1,0,0):  -42 y(0,1,0) + v(1,0,0) - u(1,0,0) >= -42
MCLinV(0,1,1):  x(0,1) - v(0,1,1) - x(1,1) = 1
MCLinV(1,0,1):  - x(0,1) - v(1,0,1) + x(1,1) = 4
MCLin1(0,1,1):  u(0,1,1) >= -0
MCLin2(0,1,1):  -41 y(1,0,1) - u(0,1,1) <= -0
MCLin3(0,1,1):  40 y(1,0,1) + v(0,1,1) - u(0,1,1) <= 40
MCLin4(0,1,1):  40 y(1,0,1) - u(0,1,1) >= -0
MCLin5(0,1,1):  -41 y(1,0,1) + v(0,1,1) - u(0,1,1) >= -41
MCLin6(1,0,1):  u(1,0,1) >= -0
MCLin7(1,0,1):  -45 y(0,1,1) - u(1,0,1) <= -0
MCLin8(1,0,1):  36 y(0,1,1) + v(1,0,1) - u(1,0,1) <= 36
MCLin9(1,0,1):  36 y(0,1,1) - u(1,0,1) >= -0
MCLin10(1,0,1):  -45 y(0,1,1) + v(1,0,1) - u(1,0,1) >= -45
MCLinV(0,1,2):  x(0,2) - v(0,1,2) - x(1,2) = 7
MCLinV(1,0,2):  - x(0,2) - v(1,0,2) + x(1,2) = 1
MCLin1(0,1,2):  u(0,1,2) >= -0
MCLin2(0,1,2):  -44 y(1,0,2) - u(0,1,2) <= -0
MCLin3(0,1,2):  37 y(1,0,2) + v(0,1,2) - u(0,1,2) <= 37
MCLin4(0,1,2):  37 y(1,0,2) - u(0,1,2) >= -0
MCLin5(0,1,2):  -44 y(1,0,2) + v(0,1,2) - u(0,1,2) >= -44
MCLin6(1,0,2):  u(1,0,2) >= -0
MCLin7(1,0,2):  -45 y(0,1,2) - u(1,0,2) <= -0
MCLin8(1,0,2):  36 y(0,1,2) + v(1,0,2) - u(1,0,2) <= 36
MCLin9(1,0,2):  36 y(0,1,2) - u(1,0,2) >= -0
MCLin10(1,0,2):  -45 y(0,1,2) + v(1,0,2) - u(1,0,2) >= -45
MCLinV(0,2,0):  x(0,0) - v(0,2,0) - x(2,0) = 4
MCLinV(2,0,0):  - x(0,0) - v(2,0,0) + x(2,0) = 4
MCLin1(0,2,0):  u(0,2,0) >= -0
MCLin2(0,2,0):  -40 y(2,0,0) - u(0,2,0) <= -0
MCLin3(0,2,0):  42 y(2,0,0) + v(0,2,0) - u(0,2,0) <= 42
MCLin4(0,2,0):  42 y(2,0,0) - u(0,2,0) >= -0
MCLin5(0,2,0):  -40 y(2,0,0) + v(0,2,0) - u(0,2,0) >= -40
MCLin6(2,0,0):  u(2,0,0) >= -0
MCLin7(2,0,0):  -50 y(0,2,0) - u(2,0,0) <= -0
MCLin8(2,0,0):  32 y(0,2,0) + v(2,0,0) - u(2,0,0) <= 32
MCLin9(2,0,0):  32 y(0,2,0) - u(2,0,0) >= -0
MCLin10(2,0,0):  -50 y(0,2,0) + v(2,0,0) - u(2,0,0) >= -50
MCLinV(0,2,1):  x(0,1) - v(0,2,1) - x(2,1) = 4
MCLinV(2,0,1):  - x(0,1) - v(2,0,1) + x(2,1) = 4
MCLin1(0,2,1):  u(0,2,1) >= -0
MCLin2(0,2,1):  -50 y(2,0,1) - u(0,2,1) <= -0
MCLin3(0,2,1):  32 y(2,0,1) + v(0,2,1) - u(0,2,1) <= 32
MCLin4(0,2,1):  32 y(2,0,1) - u(0,2,1) >= -0
MCLin5(0,2,1):  -50 y(2,0,1) + v(0,2,1) - u(0,2,1) >= -50
MCLin6(2,0,1):  u(2,0,1) >= -0
MCLin7(2,0,1):  -40 y(0,2,1) - u(2,0,1) <= -0
MCLin8(2,0,1):  42 y(0,2,1) + v(2,0,1) - u(2,0,1) <= 42
MCLin9(2,0,1):  42 y(0,2,1) - u(2,0,1) >= -0
MCLin10(2,0,1):  -40 y(0,2,1) + v(2,0,1) - u(2,0,1) >= -40
MCLinV(0,2,2):  x(0,2) - v(0,2,2) - x(2,2) = 1
MCLinV(2,0,2):  - x(0,2) - v(2,0,2) + x(2,2) = 1
MCLin1(0,2,2):  u(0,2,2) >= -0
MCLin2(0,2,2):  -42 y(2,0,2) - u(0,2,2) <= -0
MCLin3(0,2,2):  40 y(2,0,2) + v(0,2,2) - u(0,2,2) <= 40
MCLin4(0,2,2):  40 y(2,0,2) - u(0,2,2) >= -0
MCLin5(0,2,2):  -42 y(2,0,2) + v(0,2,2) - u(0,2,2) >= -42
MCLin6(2,0,2):  u(2,0,2) >= -0
MCLin7(2,0,2):  -42 y(0,2,2) - u(2,0,2) <= -0
MCLin8(2,0,2):  40 y(0,2,2) + v(2,0,2) - u(2,0,2) <= 40
MCLin9(2,0,2):  40 y(0,2,2) - u(2,0,2) >= -0
MCLin10(2,0,2):  -42 y(0,2,2) + v(2,0,2) - u(2,0,2) >= -42
MCLinV(0,3,0):  x(0,0) - v(0,3,0) - x(3,0) = 3
MCLinV(3,0,0):  - x(0,0) - v(3,0,0) + x(3,0) = 4
MCLin1(0,3,0):  u(0,3,0) >= -0
MCLin2(0,3,0):  -35 y(3,0,0) - u(0,3,0) <= -0
MCLin3(0,3,0):  43 y(3,0,0) + v(0,3,0) - u(0,3,0) <= 43
MCLin4(0,3,0):  43 y(3,0,0) - u(0,3,0) >= -0
MCLin5(0,3,0):  -35 y(3,0,0) + v(0,3,0) - u(0,3,0) >= -35
MCLin6(3,0,0):  u(3,0,0) >= -0
MCLin7(3,0,0):  -50 y(0,3,0) - u(3,0,0) <= -0
MCLin8(3,0,0):  28 y(0,3,0) + v(3,0,0) - u(3,0,0) <= 28
MCLin9(3,0,0):  28 y(0,3,0) - u(3,0,0) >= -0
MCLin10(3,0,0):  -50 y(0,3,0) + v(3,0,0) - u(3,0,0) >= -50
MCLinV(0,3,1):  x(0,1) - v(0,3,1) - x(3,1) = 1
MCLinV(3,0,1):  - x(0,1) - v(3,0,1) + x(3,1) = 4
MCLin1(0,3,1):  u(0,3,1) >= -0
MCLin2(0,3,1):  -41 y(3,0,1) - u(0,3,1) <= -0
MCLin3(0,3,1):  37 y(3,0,1) + v(0,3,1) - u(0,3,1) <= 37
MCLin4(0,3,1):  37 y(3,0,1) - u(0,3,1) >= -0
MCLin5(0,3,1):  -41 y(3,0,1) + v(0,3,1) - u(0,3,1) >= -41
MCLin6(3,0,1):  u(3,0,1) >= -0
MCLin7(3,0,1):  -42 y(0,3,1) - u(3,0,1) <= -0
MCLin8(3,0,1):  36 y(0,3,1) + v(3,0,1) - u(3,0,1) <= 36
MCLin9(3,0,1):  36 y(0,3,1) - u(3,0,1) >= -0
MCLin10(3,0,1):  -42 y(0,3,1) + v(3,0,1) - u(3,0,1) >= -42
MCLinV(0,3,2):  x(0,2) - v(0,3,2) - x(3,2) = 9
MCLinV(3,0,2):  - x(0,2) - v(3,0,2) + x(3,2) = 1
MCLin1(0,3,2):  u(0,3,2) >= -0
MCLin2(0,3,2):  -46 y(3,0,2) - u(0,3,2) <= -0
MCLin3(0,3,2):  32 y(3,0,2) + v(0,3,2) - u(0,3,2) <= 32
MCLin4(0,3,2):  32 y(3,0,2) - u(0,3,2) >= -0
MCLin5(0,3,2):  -46 y(3,0,2) + v(0,3,2) - u(0,3,2) >= -46
MCLin6(3,0,2):  u(3,0,2) >= -0
MCLin7(3,0,2):  -42 y(0,3,2) - u(3,0,2) <= -0
MCLin8(3,0,2):  36 y(0,3,2) + v(3,0,2) - u(3,0,2) <= 36
MCLin9(3,0,2):  36 y(0,3,2) - u(3,0,2) >= -0
MCLin10(3,0,2):  -42 y(0,3,2) + v(3,0,2) - u(3,0,2) >= -42
MCLinV(0,4,0):  x(0,0) - v(0,4,0) - x(4,0) = 2
MCLinV(4,0,0):  - x(0,0) - v(4,0,0) + x(4,0) = 4
MCLin1(0,4,0):  u(0,4,0) >= -0
MCLin2(0,4,0):  -45 y(4,0,0) - u(0,4,0) <= -0
MCLin3(0,4,0):  37 y(4,0,0) + v(0,4,0) - u(0,4,0) <= 37
MCLin4(0,4,0):  37 y(4,0,0) - u(0,4,0) >= -0
MCLin5(0,4,0):  -45 y(4,0,0) + v(0,4,0) - u(0,4,0) >= -45
MCLin6(4,0,0):  u(4,0,0) >= -0
MCLin7(4,0,0):  -43 y(0,4,0) - u(4,0,0) <= -0
MCLin8(4,0,0):  39 y(0,4,0) + v(4,0,0) - u(4,0,0) <= 39
MCLin9(4,0,0):  39 y(0,4,0) - u(4,0,0) >= -0
MCLin10(4,0,0):  -43 y(0,4,0) + v(4,0,0) - u(4,0,0) >= -43
MCLinV(0,4,1):  x(0,1) - v(0,4,1) - x(4,1) = 6
MCLinV(4,0,1):  - x(0,1) - v(4,0,1) + x(4,1) = 4
MCLin1(0,4,1):  u(0,4,1) >= -0
MCLin2(0,4,1):  -48 y(4,0,1) - u(0,4,1) <= -0
MCLin3(0,4,1):  34 y(4,0,1) + v(0,4,1) - u(0,4,1) <= 34
MCLin4(0,4,1):  34 y(4,0,1) - u(0,4,1) >= -0
MCLin5(0,4,1):  -48 y(4,0,1) + v(0,4,1) - u(0,4,1) >= -48
MCLin6(4,0,1):  u(4,0,1) >= -0
MCLin7(4,0,1):  -44 y(0,4,1) - u(4,0,1) <= -0
MCLin8(4,0,1):  38 y(0,4,1) + v(4,0,1) - u(4,0,1) <= 38
MCLin9(4,0,1):  38 y(0,4,1) - u(4,0,1) >= -0
MCLin10(4,0,1):  -44 y(0,4,1) + v(4,0,1) - u(4,0,1) >= -44
MCLinV(0,4,2):  x(0,2) - v(0,4,2) - x(4,2) = 1
MCLinV(4,0,2):  - x(0,2) - v(4,0,2) + x(4,2) = 1
MCLin1(0,4,2):  u(0,4,2) >= -0
MCLin2(0,4,2):  -38 y(4,0,2) - u(0,4,2) <= -0
MCLin3(0,4,2):  44 y(4,0,2) + v(0,4,2) - u(0,4,2) <= 44
MCLin4(0,4,2):  44 y(4,0,2) - u(0,4,2) >= -0
MCLin5(0,4,2):  -38 y(4,0,2) + v(0,4,2) - u(0,4,2) >= -38
MCLin6(4,0,2):  u(4,0,2) >= -0
MCLin7(4,0,2):  -46 y(0,4,2) - u(4,0,2) <= -0
MCLin8(4,0,2):  36 y(0,4,2) + v(4,0,2) - u(4,0,2) <= 36
MCLin9(4,0,2):  36 y(0,4,2) - u(4,0,2) >= -0
MCLin10(4,0,2):  -46 y(0,4,2) + v(4,0,2) - u(4,0,2) >= -46
MCLinV(1,2,0):  x(1,0) - v(1,2,0) - x(2,0) = 4
MCLinV(2,1,0):  - x(1,0) - v(2,1,0) + x(2,0) = 2
MCLin1(1,2,0):  u(1,2,0) >= -0
MCLin2(1,2,0):  -37 y(2,1,0) - u(1,2,0) <= -0
MCLin3(1,2,0):  44 y(2,1,0) + v(1,2,0) - u(1,2,0) <= 44
MCLin4(1,2,0):  44 y(2,1,0) - u(1,2,0) >= -0
MCLin5(1,2,0):  -37 y(2,1,0) + v(1,2,0) - u(1,2,0) >= -37
MCLin6(2,1,0):  u(2,1,0) >= -0
MCLin7(2,1,0):  -50 y(1,2,0) - u(2,1,0) <= -0
MCLin8(2,1,0):  31 y(1,2,0) + v(2,1,0) - u(2,1,0) <= 31
MCLin9(2,1,0):  31 y(1,2,0) - u(2,1,0) >= -0
MCLin10(2,1,0):  -50 y(1,2,0) + v(2,1,0) - u(2,1,0) >= -50
MCLinV(1,2,1):  x(1,1) - v(1,2,1) - x(2,1) = 4
MCLinV(2,1,1):  - x(1,1) - v(2,1,1) + x(2,1) = 1
MCLin1(1,2,1):  u(1,2,1) >= -0
MCLin2(1,2,1):  -50 y(2,1,1) - u(1,2,1) <= -0
MCLin3(1,2,1):  31 y(2,1,1) + v(1,2,1) - u(1,2,1) <= 31
MCLin4(1,2,1):  31 y(2,1,1) - u(1,2,1) >= -0
MCLin5(1,2,1):  -50 y(2,1,1) + v(1,2,1) - u(1,2,1) >= -50
MCLin6(2,1,1):  u(2,1,1) >= -0
MCLin7(2,1,1):  -36 y(1,2,1) - u(2,1,1) <= -0
MCLin8(2,1,1):  45 y(1,2,1) + v(2,1,1) - u(2,1,1) <= 45
MCLin9(2,1,1):  45 y(1,2,1) - u(2,1,1) >= -0
MCLin10(2,1,1):  -36 y(1,2,1) + v(2,1,1) - u(2,1,1) >= -36
MCLinV(1,2,2):  x(1,2) - v(1,2,2) - x(2,2) = 1
MCLinV(2,1,2):  - x(1,2) - v(2,1,2) + x(2,2) = 7
MCLin1(1,2,2):  u(1,2,2) >= -0
MCLin2(1,2,2):  -45 y(2,1,2) - u(1,2,2) <= -0
MCLin3(1,2,2):  36 y(2,1,2) + v(1,2,2) - u(1,2,2) <= 36
MCLin4(1,2,2):  36 y(2,1,2) - u(1,2,2) >= -0
MCLin5(1,2,2):  -45 y(2,1,2) + v(1,2,2) - u(1,2,2) >= -45
MCLin6(2,1,2):  u(2,1,2) >= -0
MCLin7(2,1,2):  -44 y(1,2,2) - u(2,1,2) <= -0
MCLin8(2,1,2):  37 y(1,2,2) + v(2,1,2) - u(2,1,2) <= 37
MCLin9(2,1,2):  37 y(1,2,2) - u(2,1,2) >= -0
MCLin10(2,1,2):  -44 y(1,2,2) + v(2,1,2) - u(2,1,2) >= -44
MCLinV(1,3,0):  x(1,0) - v(1,3,0) - x(3,0) = 3
MCLinV(3,1,0):  - x(1,0) - v(3,1,0) + x(3,0) = 2
MCLin1(1,3,0):  u(1,3,0) >= -0
MCLin2(1,3,0):  -32 y(3,1,0) - u(1,3,0) <= -0
MCLin3(1,3,0):  45 y(3,1,0) + v(1,3,0) - u(1,3,0) <= 45
MCLin4(1,3,0):  45 y(3,1,0) - u(1,3,0) >= -0
MCLin5(1,3,0):  -32 y(3,1,0) + v(1,3,0) - u(1,3,0) >= -32
MCLin6(3,1,0):  u(3,1,0) >= -0
MCLin7(3,1,0):  -50 y(1,3,0) - u(3,1,0) <= -0
MCLin8(3,1,0):  27 y(1,3,0) + v(3,1,0) - u(3,1,0) <= 27
MCLin9(3,1,0):  27 y(1,3,0) - u(3,1,0) >= -0
MCLin10(3,1,0):  -50 y(1,3,0) + v(3,1,0) - u(3,1,0) >= -50
MCLinV(1,3,1):  x(1,1) - v(1,3,1) - x(3,1) = 1
MCLinV(3,1,1):  - x(1,1) - v(3,1,1) + x(3,1) = 1
MCLin1(1,3,1):  u(1,3,1) >= -0
MCLin2(1,3,1):  -41 y(3,1,1) - u(1,3,1) <= -0
MCLin3(1,3,1):  36 y(3,1,1) + v(1,3,1) - u(1,3,1) <= 36
MCLin4(1,3,1):  36 y(3,1,1) - u(1,3,1) >= -0
MCLin5(1,3,1):  -41 y(3,1,1) + v(1,3,1) - u(1,3,1) >= -41
MCLin6(3,1,1):  u(3,1,1) >= -0
MCLin7(3,1,1):  -38 y(1,3,1) - u(3,1,1) <= -0
MCLin8(3,1,1):  39 y(1,3,1) + v(3,1,1) - u(3,1,1) <= 39
MCLin9(3,1,1):  39 y(1,3,1) - u(3,1,1) >= -0
MCLin10(3,1,1):  -38 y(1,3,1) + v(3,1,1) - u(3,1,1) >= -38
MCLinV(1,3,2):  x(1,2) - v(1,3,2) - x(3,2) = 9
MCLinV(3,1,2):  - x(1,2) - v(3,1,2) + x(3,2) = 7
MCLin1(1,3,2):  u(1,3,2) >= -0
MCLin2(1,3,2):  -49 y(3,1,2) - u(1,3,2) <= -0
MCLin3(1,3,2):  28 y(3,1,2) + v(1,3,2) - u(1,3,2) <= 28
MCLin4(1,3,2):  28 y(3,1,2) - u(1,3,2) >= -0
MCLin5(1,3,2):  -49 y(3,1,2) + v(1,3,2) - u(1,3,2) >= -49
MCLin6(3,1,2):  u(3,1,2) >= -0
MCLin7(3,1,2):  -44 y(1,3,2) - u(3,1,2) <= -0
MCLin8(3,1,2):  33 y(1,3,2) + v(3,1,2) - u(3,1,2) <= 33
MCLin9(3,1,2):  33 y(1,3,2) - u(3,1,2) >= -0
MCLin10(3,1,2):  -44 y(1,3,2) + v(3,1,2) - u(3,1,2) >= -44
MCLinV(1,4,0):  x(1,0) - v(1,4,0) - x(4,0) = 2
MCLinV(4,1,0):  - x(1,0) - v(4,1,0) + x(4,0) = 2
MCLin1(1,4,0):  u(1,4,0) >= -0
MCLin2(1,4,0):  -42 y(4,1,0) - u(1,4,0) <= -0
MCLin3(1,4,0):  39 y(4,1,0) + v(1,4,0) - u(1,4,0) <= 39
MCLin4(1,4,0):  39 y(4,1,0) - u(1,4,0) >= -0
MCLin5(1,4,0):  -42 y(4,1,0) + v(1,4,0) - u(1,4,0) >= -42
MCLin6(4,1,0):  u(4,1,0) >= -0
MCLin7(4,1,0):  -43 y(1,4,0) - u(4,1,0) <= -0
MCLin8(4,1,0):  38 y(1,4,0) + v(4,1,0) - u(4,1,0) <= 38
MCLin9(4,1,0):  38 y(1,4,0) - u(4,1,0) >= -0
MCLin10(4,1,0):  -43 y(1,4,0) + v(4,1,0) - u(4,1,0) >= -43
MCLinV(1,4,1):  x(1,1) - v(1,4,1) - x(4,1) = 6
MCLinV(4,1,1):  - x(1,1) - v(4,1,1) + x(4,1) = 1
MCLin1(1,4,1):  u(1,4,1) >= -0
MCLin2(1,4,1):  -48 y(4,1,1) - u(1,4,1) <= -0
MCLin3(1,4,1):  33 y(4,1,1) + v(1,4,1) - u(1,4,1) <= 33
MCLin4(1,4,1):  33 y(4,1,1) - u(1,4,1) >= -0
MCLin5(1,4,1):  -48 y(4,1,1) + v(1,4,1) - u(1,4,1) >= -48
MCLin6(4,1,1):  u(4,1,1) >= -0
MCLin7(4,1,1):  -40 y(1,4,1) - u(4,1,1) <= -0
MCLin8(4,1,1):  41 y(1,4,1) + v(4,1,1) - u(4,1,1) <= 41
MCLin9(4,1,1):  41 y(1,4,1) - u(4,1,1) >= -0
MCLin10(4,1,1):  -40 y(1,4,1) + v(4,1,1) - u(4,1,1) >= -40
MCLinV(1,4,2):  x(1,2) - v(1,4,2) - x(4,2) = 1
MCLinV(4,1,2):  - x(1,2) - v(4,1,2) + x(4,2) = 7
MCLin1(1,4,2):  u(1,4,2) >= -0
MCLin2(1,4,2):  -41 y(4,1,2) - u(1,4,2) <= -0
MCLin3(1,4,2):  40 y(4,1,2) + v(1,4,2) - u(1,4,2) <= 40
MCLin4(1,4,2):  40 y(4,1,2) - u(1,4,2) >= -0
MCLin5(1,4,2):  -41 y(4,1,2) + v(1,4,2) - u(1,4,2) >= -41
MCLin6(4,1,2):  u(4,1,2) >= -0
MCLin7(4,1,2):  -48 y(1,4,2) - u(4,1,2) <= -0
MCLin8(4,1,2):  33 y(1,4,2) + v(4,1,2) - u(4,1,2) <= 33
MCLin9(4,1,2):  33 y(1,4,2) - u(4,1,2) >= -0
MCLin10(4,1,2):  -48 y(1,4,2) + v(4,1,2) - u(4,1,2) >= -48
MCLinV(2,3,0):  x(2,0) - v(2,3,0) - x(3,0) = 3
MCLinV(3,2,0):  - x(2,0) - v(3,2,0) + x(3,0) = 4
MCLin1(2,3,0):  u(2,3,0) >= -0
MCLin2(2,3,0):  -40 y(3,2,0) - u(2,3,0) <= -0
MCLin3(2,3,0):  38 y(3,2,0) + v(2,3,0) - u(2,3,0) <= 38
MCLin4(2,3,0):  38 y(3,2,0) - u(2,3,0) >= -0
MCLin5(2,3,0):  -40 y(3,2,0) + v(2,3,0) - u(2,3,0) >= -40
MCLin6(3,2,0):  u(3,2,0) >= -0
MCLin7(3,2,0):  -45 y(2,3,0) - u(3,2,0) <= -0
MCLin8(3,2,0):  33 y(2,3,0) + v(3,2,0) - u(3,2,0) <= 33
MCLin9(3,2,0):  33 y(2,3,0) - u(3,2,0) >= -0
MCLin10(3,2,0):  -45 y(2,3,0) + v(3,2,0) - u(3,2,0) >= -45
MCLinV(2,3,1):  x(2,1) - v(2,3,1) - x(3,1) = 1
MCLinV(3,2,1):  - x(2,1) - v(3,2,1) + x(3,1) = 4
MCLin1(2,3,1):  u(2,3,1) >= -0
MCLin2(2,3,1):  -36 y(3,2,1) - u(2,3,1) <= -0
MCLin3(2,3,1):  42 y(3,2,1) + v(2,3,1) - u(2,3,1) <= 42
MCLin4(2,3,1):  42 y(3,2,1) - u(2,3,1) >= -0
MCLin5(2,3,1):  -36 y(3,2,1) + v(2,3,1) - u(2,3,1) >= -36
MCLin6(3,2,1):  u(3,2,1) >= -0
MCLin7(3,2,1):  -47 y(2,3,1) - u(3,2,1) <= -0
MCLin8(3,2,1):  31 y(2,3,1) + v(3,2,1) - u(3,2,1) <= 31
MCLin9(3,2,1):  31 y(2,3,1) - u(3,2,1) >= -0
MCLin10(3,2,1):  -47 y(2,3,1) + v(3,2,1) - u(3,2,1) >= -47
MCLinV(2,3,2):  x(2,2) - v(2,3,2) - x(3,2) = 9
MCLinV(3,2,2):  - x(2,2) - v(3,2,2) + x(3,2) = 1
MCLin1(2,3,2):  u(2,3,2) >= -0
MCLin2(2,3,2):  -46 y(3,2,2) - u(2,3,2) <= -0
MCLin3(2,3,2):  32 y(3,2,2) + v(2,3,2) - u(2,3,2) <= 32
MCLin4(2,3,2):  32 y(3,2,2) - u(2,3,2) >= -0
MCLin5(2,3,2):  -46 y(3,2,2) + v(2,3,2) - u(2,3,2) >= -46
MCLin6(3,2,2):  u(3,2,2) >= -0
MCLin7(3,2,2):  -42 y(2,3,2) - u(3,2,2) <= -0
MCLin8(3,2,2):  36 y(2,3,2) + v(3,2,2) - u(3,2,2) <= 36
MCLin9(3,2,2):  36 y(2,3,2) - u(3,2,2) >= -0
MCLin10(3,2,2):  -42 y(2,3,2) + v(3,2,2) - u(3,2,2) >= -42
MCLinV(2,4,0):  x(2,0) - v(2,4,0) - x(4,0) = 2
MCLinV(4,2,0):  - x(2,0) - v(4,2,0) + x(4,0) = 4
MCLin1(2,4,0):  u(2,4,0) >= -0
MCLin2(2,4,0):  -50 y(4,2,0) - u(2,4,0) <= -0
MCLin3(2,4,0):  32 y(4,2,0) + v(2,4,0) - u(2,4,0) <= 32
MCLin4(2,4,0):  32 y(4,2,0) - u(2,4,0) >= -0
MCLin5(2,4,0):  -50 y(4,2,0) + v(2,4,0) - u(2,4,0) >= -50
MCLin6(4,2,0):  u(4,2,0) >= -0
MCLin7(4,2,0):  -38 y(2,4,0) - u(4,2,0) <= -0
MCLin8(4,2,0):  44 y(2,4,0) + v(4,2,0) - u(4,2,0) <= 44
MCLin9(4,2,0):  44 y(2,4,0) - u(4,2,0) >= -0
MCLin10(4,2,0):  -38 y(2,4,0) + v(4,2,0) - u(4,2,0) >= -38
MCLinV(2,4,1):  x(2,1) - v(2,4,1) - x(4,1) = 6
MCLinV(4,2,1):  - x(2,1) - v(4,2,1) + x(4,1) = 4
MCLin1(2,4,1):  u(2,4,1) >= -0
MCLin2(2,4,1):  -43 y(4,2,1) - u(2,4,1) <= -0
MCLin3(2,4,1):  39 y(4,2,1) + v(2,4,1) - u(2,4,1) <= 39
MCLin4(2,4,1):  39 y(4,2,1) - u(2,4,1) >= -0
MCLin5(2,4,1):  -43 y(4,2,1) + v(2,4,1) - u(2,4,1) >= -43
MCLin6(4,2,1):  u(4,2,1) >= -0
MCLin7(4,2,1):  -49 y(2,4,1) - u(4,2,1) <= -0
MCLin8(4,2,1):  33 y(2,4,1) + v(4,2,1) - u(4,2,1) <= 33
MCLin9(4,2,1):  33 y(2,4,1) - u(4,2,1) >= -0
MCLin10(4,2,1):  -49 y(2,4,1) + v(4,2,1) - u(4,2,1) >= -49
MCLinV(2,4,2):  x(2,2) - v(2,4,2) - x(4,2) = 1
MCLinV(4,2,2):  - x(2,2) - v(4,2,2) + x(4,2) = 1
MCLin1(2,4,2):  u(2,4,2) >= -0
MCLin2(2,4,2):  -38 y(4,2,2) - u(2,4,2) <= -0
MCLin3(2,4,2):  44 y(4,2,2) + v(2,4,2) - u(2,4,2) <= 44
MCLin4(2,4,2):  44 y(4,2,2) - u(2,4,2) >= -0
MCLin5(2,4,2):  -38 y(4,2,2) + v(2,4,2) - u(2,4,2) >= -38
MCLin6(4,2,2):  u(4,2,2) >= -0
MCLin7(4,2,2):  -46 y(2,4,2) - u(4,2,2) <= -0
MCLin8(4,2,2):  36 y(2,4,2) + v(4,2,2) - u(4,2,2) <= 36
MCLin9(4,2,2):  36 y(2,4,2) - u(4,2,2) >= -0
MCLin10(4,2,2):  -46 y(2,4,2) + v(4,2,2) - u(4,2,2) >= -46
MCLinV(3,4,0):  x(3,0) - v(3,4,0) - x(4,0) = 2
MCLinV(4,3,0):  - x(3,0) - v(4,3,0) + x(4,0) = 3
MCLin1(3,4,0):  u(3,4,0) >= -0
MCLin2(3,4,0):  -50 y(4,3,0) - u(3,4,0) <= -0
MCLin3(3,4,0):  28 y(4,3,0) + v(3,4,0) - u(3,4,0) <= 28
MCLin4(3,4,0):  28 y(4,3,0) - u(3,4,0) >= -0
MCLin5(3,4,0):  -50 y(4,3,0) + v(3,4,0) - u(3,4,0) >= -50
MCLin6(4,3,0):  u(4,3,0) >= -0
MCLin7(4,3,0):  -33 y(3,4,0) - u(4,3,0) <= -0
MCLin8(4,3,0):  45 y(3,4,0) + v(4,3,0) - u(4,3,0) <= 45
MCLin9(4,3,0):  45 y(3,4,0) - u(4,3,0) >= -0
MCLin10(4,3,0):  -33 y(3,4,0) + v(4,3,0) - u(4,3,0) >= -33
MCLinV(3,4,1):  x(3,1) - v(3,4,1) - x(4,1) = 6
MCLinV(4,3,1):  - x(3,1) - v(4,3,1) + x(4,1) = 1
MCLin1(3,4,1):  u(3,4,1) >= -0
MCLin2(3,4,1):  -45 y(4,3,1) - u(3,4,1) <= -0
MCLin3(3,4,1):  33 y(4,3,1) + v(3,4,1) - u(3,4,1) <= 33
MCLin4(3,4,1):  33 y(4,3,1) - u(3,4,1) >= -0
MCLin5(3,4,1):  -45 y(4,3,1) + v(3,4,1) - u(3,4,1) >= -45
MCLin6(4,3,1):  u(4,3,1) >= -0
MCLin7(4,3,1):  -40 y(3,4,1) - u(4,3,1) <= -0
MCLin8(4,3,1):  38 y(3,4,1) + v(4,3,1) - u(4,3,1) <= 38
MCLin9(4,3,1):  38 y(3,4,1) - u(4,3,1) >= -0
MCLin10(4,3,1):  -40 y(3,4,1) + v(4,3,1) - u(4,3,1) >= -40
MCLinV(3,4,2):  x(3,2) - v(3,4,2) - x(4,2) = 1
MCLinV(4,3,2):  - x(3,2) - v(4,3,2) + x(4,2) = 9
MCLin1(3,4,2):  u(3,4,2) >= -0
MCLin2(3,4,2):  -38 y(4,3,2) - u(3,4,2) <= -0
MCLin3(3,4,2):  40 y(4,3,2) + v(3,4,2) - u(3,4,2) <= 40
MCLin4(3,4,2):  40 y(4,3,2) - u(3,4,2) >= -0
MCLin5(3,4,2):  -38 y(4,3,2) + v(3,4,2) - u(3,4,2) >= -38
MCLin6(4,3,2):  u(4,3,2) >= -0
MCLin7(4,3,2):  -50 y(3,4,2) - u(4,3,2) <= -0
MCLin8(4,3,2):  28 y(3,4,2) + v(4,3,2) - u(4,3,2) <= 28
MCLin9(4,3,2):  28 y(3,4,2) - u(4,3,2) >= -0
MCLin10(4,3,2):  -50 y(3,4,2) + v(4,3,2) - u(4,3,2) >= -50
makespan(0):  C - x(0,0) >= 4
makespan(1):  C - x(1,0) >= 2
makespan(2):  C - x(2,1) >= 4
makespan(3):  C - x(3,2) >= 9
makespan(4):  C - x(4,0) >= 2
cut_clique_0(01234,0):  0.33333 x(2,0) + 0.25000 x(3,0) >= 1
cut_clique_0(0124,0):  0.03030 x(0,0) + 0.01515 x(1,0) + 0.07576 x(4,0) >= 1
cut_clique_0(0234,0):  0.33333 x(2,0) + 0.25000 x(3,0) >= 1
cut_clique_0(0134,0):  0.03030 x(0,0) + 0.01515 x(1,0) + 0.07576 x(4,0) >= 1
cut_clique_0(0123,0):  0.33333 x(2,0) + 0.25000 x(3,0) >= 1
cut_clique_0(1234,0):  0.33333 x(2,0) + 0.25000 x(3,0) >= 1
cut_clique_0(014,0):  0.03030 x(0,0) + 0.01515 x(1,0) + 0.07576 x(4,0) >= 1
cut_clique_0(024,0):  0.04348 x(0,0) + 0.08696 x(4,0) >= 1
cut_clique_0(023,0):  0.33333 x(2,0) + 0.25000 x(3,0) >= 1
cut_clique_0(034,0):  0.04348 x(0,0) + 0.08696 x(4,0) >= 1
cut_clique_0(234,0):  0.33333 x(2,0) + 0.25000 x(3,0) >= 1
cut_clique_0(123,0):  0.33333 x(2,0) + 0.25000 x(3,0) >= 1
cut_clique_0(01234,1):  0.11765 x(0,1) + 0.02941 x(1,1) + 0.17647 x(4,1) >= 1
cut_clique_0(0134,1):  0.11765 x(0,1) + 0.02941 x(1,1) + 0.17647 x(4,1) >= 1
cut_clique_0(1234,1):  0.12000 x(3,1) + 0.16000 x(4,1) >= 1
cut_clique_0(0124,1):  0.11765 x(0,1) + 0.02941 x(1,1) + 0.17647 x(4,1) >= 1
cut_clique_0(0123,1):  x(0,1) + 0.25000 x(1,1) >= 1
cut_clique_0(0234,1):  0.10714 x(0,1) + 0.25000 x(4,1) >= 1
cut_clique_0(014,1):  0.11765 x(0,1) + 0.02941 x(1,1) + 0.17647 x(4,1) >= 1
cut_clique_0(134,1):  0.12000 x(3,1) + 0.16000 x(4,1) >= 1
cut_clique_0(013,1):  x(0,1) + 0.25000 x(1,1) >= 1
cut_clique_0(034,1):  0.10714 x(0,1) + 0.25000 x(4,1) >= 1
cut_clique_0(234,1):  0.12000 x(3,1) + 0.16000 x(4,1) >= 1
cut_clique_0(012,1):  x(0,1) + 0.25000 x(1,1) >= 1
cut_clique_0(023,1):  0.06250 x(0,1) + 0.25000 x(3,1) >= 1
cut_clique_0(024,1):  0.10714 x(0,1) + 0.25000 x(4,1) >= 1
cut_clique_0(01234,2):  0.00908 x(0,2) + 0.02853 x(1,2) + 0.00908 x(2,2) + 0.08171 x(3,2) >= 1
cut_clique_0(0123,2):  0.00908 x(0,2) + 0.02853 x(1,2) + 0.00908 x(2,2) + 0.08171 x(3,2) >= 1
cut_clique_0(0134,2):  0.01086 x(0,2) + 0.03342 x(1,2) + 0.09774 x(3,2) >= 1
cut_clique_0(0234,2):  0.01587 x(0,2) + 0.01587 x(2,2) + 0.14286 x(3,2) >= 1
cut_clique_0(0124,2):  0.09936 x(0,2) + 0.08974 x(1,2) + 0.01282 x(2,2) >= 1
cut_clique_0(1234,2):  0.03342 x(1,2) + 0.01086 x(2,2) + 0.09774 x(3,2) >= 1
cut_clique_0(013,2):  0.01086 x(0,2) + 0.03342 x(1,2) + 0.09774 x(3,2) >= 1
cut_clique_0(023,2):  0.01587 x(0,2) + 0.01587 x(2,2) + 0.14286 x(3,2) >= 1
cut_clique_0(014,2):  0.11111 x(0,2) + 0.11111 x(1,2) >= 1
cut_clique_0(034,2):  0.02041 x(0,2) + 0.18367 x(3,2) >= 1
cut_clique_0(134,2):  0.04000 x(1,2) + 0.12000 x(3,2) >= 1
cut_clique_0(012,2):  0.09936 x(0,2) + 0.08974 x(1,2) + 0.01282 x(2,2) >= 1
cut_clique_0(123,2):  0.03342 x(1,2) + 0.01086 x(2,2) + 0.09774 x(3,2) >= 1
cut_clique_0(124,2):  0.11111 x(1,2) + 0.11111 x(2,2) >= 1
cut_clique_0(234,2):  0.02041 x(2,2) + 0.18367 x(3,2) >= 1
Bounds
 0 <= C <= 50
 5 <= x(0,0) <= 46
 0 <= y(0,1,0) <= 1
 0 <= y(1,0,0) <= 1
 -45 <= v(0,1,0) <= 36
 -42 <= v(1,0,0) <= 39
 -500 <= u(0,1,0)
 -500 <= u(1,0,0)
 0 <= y(0,2,0) <= 1
 0 <= y(2,0,0) <= 1
 -40 <= v(0,2,0) <= 42
 -50 <= v(2,0,0) <= 32
 -500 <= u(0,2,0)
 -500 <= u(2,0,0)
 0 <= y(0,3,0) <= 1
 0 <= y(3,0,0) <= 1
 -35 <= v(0,3,0) <= 43
 -50 <= v(3,0,0) <= 28
 -500 <= u(0,3,0)
 -500 <= u(3,0,0)
 0 <= y(0,4,0) <= 1
 0 <= y(4,0,0) <= 1
 -45 <= v(0,4,0) <= 37
 -43 <= v(4,0,0) <= 39
 -500 <= u(0,4,0)
 -500 <= u(4,0,0)
 8 <= x(1,0) <= 48
 0 <= y(1,2,0) <= 1
 0 <= y(2,1,0) <= 1
 -37 <= v(1,2,0) <= 44
 -50 <= v(2,1,0) <= 31
 -500 <= u(1,2,0)
 -500 <= u(2,1,0)
 0 <= y(1,3,0) <= 1
 0 <= y(3,1,0) <= 1
 -32 <= v(1,3,0) <= 45
 -50 <= v(3,1,0) <= 27
 -500 <= u(1,3,0)
 -500 <= u(3,1,0)
 0 <= y(1,4,0) <= 1
 0 <= y(4,1,0) <= 1
 -42 <= v(1,4,0) <= 39
 -43 <= v(4,1,0) <= 38
 -500 <= u(1,4,0)
 -500 <= u(4,1,0)
 0 <= x(2,0) <= 41
 0 <= y(2,3,0) <= 1
 0 <= y(3,2,0) <= 1
 -40 <= v(2,3,0) <= 38
 -45 <= v(3,2,0) <= 33
 -500 <= u(2,3,0)
 -500 <= u(3,2,0)
 0 <= y(2,4,0) <= 1
 0 <= y(4,2,0) <= 1
 -50 <= v(2,4,0) <= 32
 -38 <= v(4,2,0) <= 44
 -500 <= u(2,4,0)
 -500 <= u(4,2,0)
 0 <= x(3,0) <= 37
 0 <= y(3,4,0) <= 1
 0 <= y(4,3,0) <= 1
 -50 <= v(3,4,0) <= 28
 -33 <= v(4,3,0) <= 45
 -500 <= u(3,4,0)
 -500 <= u(4,3,0)
 7 <= x(4,0) <= 48
 0 <= x(0,1) <= 41
 0 <= y(0,1,1) <= 1
 0 <= y(1,0,1) <= 1
 -41 <= v(0,1,1) <= 40
 -45 <= v(1,0,1) <= 36
 -500 <= u(0,1,1)
 -500 <= u(1,0,1)
 0 <= y(0,2,1) <= 1
 0 <= y(2,0,1) <= 1
 -50 <= v(0,2,1) <= 32
 -40 <= v(2,0,1) <= 42
 -500 <= u(0,2,1)
 -500 <= u(2,0,1)
 0 <= y(0,3,1) <= 1
 0 <= y(3,0,1) <= 1
 -41 <= v(0,3,1) <= 37
 -42 <= v(3,0,1) <= 36
 -500 <= u(0,3,1)
 -500 <= u(3,0,1)
 0 <= y(0,4,1) <= 1
 0 <= y(4,0,1) <= 1
 -48 <= v(0,4,1) <= 34
 -44 <= v(4,0,1) <= 38
 -500 <= u(0,4,1)
 -500 <= u(4,0,1)
 0 <= x(1,1) <= 40
 0 <= y(1,2,1) <= 1
 0 <= y(2,1,1) <= 1
 -50 <= v(1,2,1) <= 31
 -36 <= v(2,1,1) <= 45
 -500 <= u(1,2,1)
 -500 <= u(2,1,1)
 0 <= y(1,3,1) <= 1
 0 <= y(3,1,1) <= 1
 -41 <= v(1,3,1) <= 36
 -38 <= v(3,1,1) <= 39
 -500 <= u(1,3,1)
 -500 <= u(3,1,1)
 0 <= y(1,4,1) <= 1
 0 <= y(4,1,1) <= 1
 -48 <= v(1,4,1) <= 33
 -40 <= v(4,1,1) <= 41
 -500 <= u(1,4,1)
 -500 <= u(4,1,1)
 5 <= x(2,1) <= 46
 0 <= y(2,3,1) <= 1
 0 <= y(3,2,1) <= 1
 -36 <= v(2,3,1) <= 42
 -47 <= v(3,2,1) <= 31
 -500 <= u(2,3,1)
 -500 <= u(3,2,1)
 0 <= y(2,4,1) <= 1
 0 <= y(4,2,1) <= 1
 -43 <= v(2,4,1) <= 39
 -49 <= v(4,2,1) <= 33
 -500 <= u(2,4,1)
 -500 <= u(4,2,1)
 3 <= x(3,1) <= 40
 0 <= y(3,4,1) <= 1
 0 <= y(4,3,1) <= 1
 -45 <= v(3,4,1) <= 33
 -40 <= v(4,3,1) <= 38
 -500 <= u(3,4,1)
 -500 <= u(4,3,1)
 1 <= x(4,1) <= 42
 4 <= x(0,2) <= 45
 0 <= y(0,1,2) <= 1
 0 <= y(1,0,2) <= 1
 -44 <= v(0,1,2) <= 37
 -45 <= v(1,0,2) <= 36
 -500 <= u(0,1,2)
 -500 <= u(1,0,2)
 0 <= y(0,2,2) <= 1
 0 <= y(2,0,2) <= 1
 -42 <= v(0,2,2) <= 40
 -42 <= v(2,0,2) <= 40
 -500 <= u(0,2,2)
 -500 <= u(2,0,2)
 0 <= y(0,3,2) <= 1
 0 <= y(3,0,2) <= 1
 -46 <= v(0,3,2) <= 32
 -42 <= v(3,0,2) <= 36
 -500 <= u(0,3,2)
 -500 <= u(3,0,2)
 0 <= y(0,4,2) <= 1
 0 <= y(4,0,2) <= 1
 -38 <= v(0,4,2) <= 44
 -46 <= v(4,0,2) <= 36
 -500 <= u(0,4,2)
 -500 <= u(4,0,2)
 1 <= x(1,2) <= 41
 0 <= y(1,2,2) <= 1
 0 <= y(2,1,2) <= 1
 -45 <= v(1,2,2) <= 36
 -44 <= v(2,1,2) <= 37
 -500 <= u(1,2,2)
 -500 <= u(2,1,2)
 0 <= y(1,3,2) <= 1
 0 <= y(3,1,2) <= 1
 -49 <= v(1,3,2) <= 28
 -44 <= v(3,1,2) <= 33
 -500 <= u(1,3,2)
 -500 <= u(3,1,2)
 0 <= y(1,4,2) <= 1
 0 <= y(4,1,2) <= 1
 -41 <= v(1,4,2) <= 40
 -48 <= v(4,1,2) <= 33
 -500 <= u(1,4,2)
 -500 <= u(4,1,2)
 4 <= x(2,2) <= 45
 0 <= y(2,3,2) <= 1
 0 <= y(3,2,2) <= 1
 -46 <= v(2,3,2) <= 32
 -42 <= v(3,2,2) <= 36
 -500 <= u(2,3,2)
 -500 <= u(3,2,2)
 0 <= y(2,4,2) <= 1
 0 <= y(4,2,2) <= 1
 -38 <= v(2,4,2) <= 44
 -46 <= v(4,2,2) <= 36
 -500 <= u(2,4,2)
 -500 <= u(4,2,2)
 4 <= x(3,2) <= 41
 0 <= y(3,4,2) <= 1
 0 <= y(4,3,2) <= 1
 -38 <= v(3,4,2) <= 40
 -50 <= v(4,3,2) <= 28
 -500 <= u(3,4,2)
 -500 <= u(4,3,2)
 0 <= x(4,2) <= 41
Integers
C x(0,0) y(0,1,0) y(1,0,0) v(0,1,0) v(1,0,0) u(0,1,0) u(1,0,0) y(0,2,0) y(2,0,0) 
v(0,2,0) v(2,0,0) u(0,2,0) u(2,0,0) y(0,3,0) y(3,0,0) v(0,3,0) v(3,0,0) u(0,3,0) u(3,0,0) 
y(0,4,0) y(4,0,0) v(0,4,0) v(4,0,0) u(0,4,0) u(4,0,0) x(1,0) y(1,2,0) y(2,1,0) v(1,2,0) 
v(2,1,0) u(1,2,0) u(2,1,0) y(1,3,0) y(3,1,0) v(1,3,0) v(3,1,0) u(1,3,0) u(3,1,0) y(1,4,0) 
y(4,1,0) v(1,4,0) v(4,1,0) u(1,4,0) u(4,1,0) x(2,0) y(2,3,0) y(3,2,0) v(2,3,0) v(3,2,0) 
u(2,3,0) u(3,2,0) y(2,4,0) y(4,2,0) v(2,4,0) v(4,2,0) u(2,4,0) u(4,2,0) x(3,0) y(3,4,0) 
y(4,3,0) v(3,4,0) v(4,3,0) u(3,4,0) u(4,3,0) x(4,0) x(0,1) y(0,1,1) y(1,0,1) v(0,1,1) 
v(1,0,1) u(0,1,1) u(1,0,1) y(0,2,1) y(2,0,1) v(0,2,1) v(2,0,1) u(0,2,1) u(2,0,1) y(0,3,1) 
y(3,0,1) v(0,3,1) v(3,0,1) u(0,3,1) u(3,0,1) y(0,4,1) y(4,0,1) v(0,4,1) v(4,0,1) u(0,4,1) 
u(4,0,1) x(1,1) y(1,2,1) y(2,1,1) v(1,2,1) v(2,1,1) u(1,2,1) u(2,1,1) y(1,3,1) y(3,1,1) 
v(1,3,1) v(3,1,1) u(1,3,1) u(3,1,1) y(1,4,1) y(4,1,1) v(1,4,1) v(4,1,1) u(1,4,1) u(4,1,1) 
x(2,1) y(2,3,1) y(3,2,1) v(2,3,1) v(3,2,1) u(2,3,1) u(3,2,1) y(2,4,1) y(4,2,1) v(2,4,1) 
v(4,2,1) u(2,4,1) u(4,2,1) x(3,1) y(3,4,1) y(4,3,1) v(3,4,1) v(4,3,1) u(3,4,1) u(4,3,1) 
x(4,1) x(0,2) y(0,1,2) y(1,0,2) v(0,1,2) v(1,0,2) u(0,1,2) u(1,0,2) y(0,2,2) y(2,0,2) 
v(0,2,2) v(2,0,2) u(0,2,2) u(2,0,2) y(0,3,2) y(3,0,2) v(0,3,2) v(3,0,2) u(0,3,2) u(3,0,2) 
y(0,4,2) y(4,0,2) v(0,4,2) v(4,0,2) u(0,4,2) u(4,0,2) x(1,2) y(1,2,2) y(2,1,2) v(1,2,2) 
v(2,1,2) u(1,2,2) u(2,1,2) y(1,3,2) y(3,1,2) v(1,3,2) v(3,1,2) u(1,3,2) u(3,1,2) y(1,4,2) 
y(4,1,2) v(1,4,2) v(4,1,2) u(1,4,2) u(4,1,2) x(2,2) y(2,3,2) y(3,2,2) v(2,3,2) v(3,2,2) 
u(2,3,2) u(3,2,2) y(2,4,2) y(4,2,2) v(2,4,2) v(4,2,2) u(2,4,2) u(4,2,2) x(3,2) y(3,4,2) 
y(4,3,2) v(3,4,2) v(4,3,2) u(3,4,2) u(4,3,2) x(4,2) 
End
